Instance name : DPDPTWHF_R_DPDPTWUR-R_dbscan_SB_ber-n100-1
Authors : 
Date : 
Reference 
Solution
Route 1 : 1 29 79 42 92 2 51 52 
Route 2 : 32 43 27 93 77 82 
Route 3 : 48 47 41 98 97 91 40 90 
Route 4 : 12 62 34 28 84 78 
Route 5 : 36 17 67 86 4 54 
Route 6 : 21 71 25 45 75 95 24 74 
Route 7 : 33 7 83 57 22 72 
Route 8 : 23 50 73 100 30 5 80 55 
Route 9 : 6 10 56 60 38 20 70 88 
Route 10 : 46 14 96 31 64 81 11 61 
Route 11 : 
Route 12 : 
Route 13 : 
Route 14 : 
Route 15 : 
